c NeuroCodeBench 2.0 CNF formula with verdict Unsat
p cnf 144 144
1 -17 -120 78 -63 -68 13 -139 -35 66 0
1 17 96 129 -44 132 -104 0
-1 20 -43 69 -11 60 47 0
-1 20 -43 69 11 85 0
-1 -20 49 7 -74 79 6 -72 0
1 -17 -120 78 -63 -68 13 139 -117 0
-1 -20 49 7 74 -144 45 -9 85 0
1 17 -96 -2 -24 0
-1 -20 -49 48 47 18 30 -2 -66 0
1 17 -96 -2 24 -93 0
1 17 96 -129 -80 62 -107 -127 95 0
-1 -20 -49 -48 88 -128 66 0
-1 20 43 24 31 -47 0
-1 -20 -49 -48 -88 97 -144 -28 -60 0
1 17 -96 2 77 0
-1 20 -43 69 -11 -60 0
-1 -20 -49 -48 88 -128 -66 -22 0
1 17 96 -129 -80 62 -107 -127 -95 0
1 -17 120 -11 55 -106 99 0
1 17 96 129 44 -125 130 21 0
1 17 96 129 44 -125 -130 0
1 17 96 129 -44 -132 -14 95 -22 0
-1 20 43 -24 -14 38 -21 88 0
1 17 96 129 -44 -132 14 -34 0
1 17 96 129 44 125 80 56 0
1 -17 -120 78 63 -87 -76 -31 0
1 17 96 129 44 125 80 -56 99 0
-1 -20 49 -7 108 116 0
1 -17 120 -11 55 -106 -99 -105 0
1 17 96 129 44 125 -80 134 14 35 0
-1 20 43 -24 -14 -38 110 99 0
1 17 96 129 44 125 -80 -134 0
1 17 96 -129 80 119 0
-1 -20 -49 48 47 18 30 -2 66 0
-1 20 -43 69 -11 60 -47 0
1 17 96 129 44 125 -80 134 -14 -73 0
1 -17 -120 78 -63 -68 13 -139 35 55 6 0
-1 -20 49 -7 -108 73 0
1 -17 120 -11 55 -106 -99 105 0
1 -17 -120 -78 -143 82 19 44 -56 0
-1 -20 -49 48 -47 126 0
-1 20 -43 -69 -117 0
1 -17 -120 78 63 -87 76 105 99 133 0
-1 -20 -49 48 47 18 30 2 -26 -10 -92 0
-1 20 43 -24 14 -5 0
1 -17 -120 78 -63 -68 -13 30 -11 0
-1 -20 -49 48 47 18 -30 -94 100 0
1 -17 -120 -78 -143 82 19 44 56 0
1 17 96 129 -44 -132 14 34 0
-1 -20 -49 -48 88 -128 -66 22 11 0
-1 -20 49 7 -74 -79 0
-1 20 43 -24 -14 38 -21 -88 0
1 -17 120 -11 55 106 115 102 0
1 -17 -120 78 63 -87 76 105 -99 0
-1 20 43 24 -31 75 135 0
1 -17 -120 78 -63 -68 13 -139 35 -55 -33 0
1 -17 -120 -78 -143 -82 0
1 -17 -120 78 63 87 -83 0
-1 -20 49 -7 -108 -73 56 0
1 -17 -120 -78 143 -88 55 -113 0
-1 -20 -49 -48 -88 -97 0
-1 20 43 -24 -14 38 21 -80 0
-1 20 43 24 31 47 8 0
1 -17 -120 -78 -143 82 -19 -112 123 -106 0
-1 20 -43 69 11 -85 0
1 -17 -120 78 -63 -68 13 -139 35 55 -6 0
1 -17 -120 78 -63 -68 13 -139 35 -55 33 0
1 17 96 129 44 -125 130 -21 -12 109 0
-1 -20 -49 48 47 18 30 2 -26 10 0
-1 -20 49 7 74 -144 45 -9 -85 0
1 17 96 -129 80 -119 0
1 17 -96 2 -77 0
-1 -20 -49 48 47 18 -30 94 0
1 17 -96 -2 24 93 127 0
1 -17 -120 -78 143 88 0
1 -17 -120 78 -63 -68 -13 30 11 0
-1 20 43 24 -31 75 -135 0
-1 -20 -49 -48 -88 97 144 0
-1 -20 49 7 -74 79 -6 0
-1 20 43 24 31 47 -8 0
1 17 96 129 44 125 -80 134 -14 73 0
-1 20 43 24 -31 -75 109 0
1 -17 -120 78 -63 -68 13 -139 -35 -66 0
1 -17 -120 78 -63 -68 -13 -30 0
1 -17 120 -11 55 106 -115 0
1 17 96 129 -44 -132 -14 -95 0
-1 -20 49 7 74 -144 -45 0
-1 20 43 -24 -14 38 21 80 0
1 -17 120 -11 55 106 115 -102 0
1 -17 -120 -78 -143 82 -19 -112 123 106 0
1 -17 -120 -78 143 -88 55 113 8 0
1 -17 -120 78 -63 -68 13 139 117 -129 0
-1 -20 49 -7 -108 -73 -56 0
1 17 96 -129 -80 62 -107 127 0
1 -17 -120 78 -63 68 -10 0
1 -17 -120 -78 143 -88 55 113 -8 0
1 -17 120 -11 -55 -45 -81 0
1 -17 120 11 125 0
-1 -20 -49 48 -47 -126 0
1 -17 -120 78 -63 -68 13 139 117 129 0
1 17 96 129 44 125 -80 134 14 -35 0
-1 -20 49 7 74 -144 45 9 0
1 17 96 129 44 -125 130 -21 12 0
-1 -20 -49 48 47 18 30 2 -26 -10 92 0
-1 -20 -49 48 47 -18 30 0
-1 -20 -49 -48 -88 97 -144 28 0
-1 -20 -49 48 47 18 -30 -94 -100 0
-1 -20 49 -7 108 -116 0
1 17 96 -129 -80 62 107 0
-1 20 43 -24 14 5 0
1 -17 -120 78 -63 68 10 0
1 17 96 -129 -80 -62 0
-1 -20 -49 -48 -88 97 -144 -28 60 0
1 -17 -120 -78 -143 82 -19 112 0
1 -17 -120 -78 -143 82 19 -44 0
1 -17 -120 78 63 87 83 0
1 17 96 129 -44 -132 -14 95 22 0
-1 -20 -49 48 47 18 30 2 26 -68 103 0
1 -17 -120 -78 143 -88 -55 -97 0
1 17 96 129 44 -125 130 -21 -12 -109 0
1 -17 -120 78 63 -87 76 105 99 -133 0
-1 -20 -49 48 47 18 30 2 26 68 0
1 -17 -120 78 63 -87 -76 31 0
-1 20 -43 -69 117 0
-1 -20 49 7 74 144 -97 0
-1 -20 -49 48 47 -18 -30 0
-1 20 43 -24 -14 -38 -110 0
1 -17 120 -11 -55 -45 81 0
-1 -20 -49 -48 88 -128 -66 22 -11 0
1 17 -96 -2 24 93 -127 -32 0
-1 20 43 24 -31 -75 -109 0
1 17 -96 -2 24 93 -127 32 0
1 -17 120 11 -125 0
1 17 96 129 44 125 80 -56 -99 0
1 -17 -120 -78 143 -88 -55 97 0
1 -17 -120 -78 -143 82 -19 -112 -123 0
-1 20 43 -24 -14 -38 110 -99 0
-1 -20 -49 48 47 18 30 2 26 -68 -103 0
-1 -20 49 7 74 144 97 0
1 -17 120 -11 -55 45 0
1 17 96 129 -44 132 104 0
-1 -20 49 7 -74 79 6 72 0
1 -17 -120 78 63 -87 76 -105 0
-1 -20 -49 -48 88 128 0
